(set-info :source |printed by MathSAT|)
(declare-fun |!{$(in_main#0)<k>}| () Int)
(declare-fun |!{$(in_main#0)<k>}.next| () Int)
(declare-fun |!{$(in_main#0)<k#1>}| () Int)
(declare-fun |!{$(in_main#0)<k#1>}.next| () Int)
(declare-fun |!{$(in_main#0)<max>}| () Int)
(declare-fun |!{$(in_main#0)<max>}.next| () Int)
(declare-fun |!{$(in_main#0)<array.1>}| () (Array Int Int))
(declare-fun |!{$(in_main#0)<array.1>}.next| () (Array Int Int))
(declare-fun |!{$(in_main#0)<N>}| () Int)
(declare-fun |!{$(in_main#0)<N>}.next| () Int)
(declare-fun |!{$(in_main#0)<i>}| () Int)
(declare-fun |!{$(in_main#0)<i>}.next| () Int)
(declare-fun |!{$(in_main#0)<j>}| () Int)
(declare-fun |!{$(in_main#0)<j>}.next| () Int)
(declare-fun |!{$(in_main#0)<$(in___VERIFIER_nondet_int#0)<h#<__VERIFIER_nondet_int.return>>>}| () Int)
(declare-fun |!{$(in_main#0)<$(in___VERIFIER_nondet_int#2)<h#<__VERIFIER_nondet_int.return>>>}| () Int)
(declare-fun !pc () Int)
(declare-fun !pc.next () Int)
(declare-fun |%{$(in_main#0)<i>}#1| () Int)
(declare-fun |%{$(in_main#0)<j>}#1| () Int)
(declare-fun |%{$(in_main#0)<k#1>}#1| () Int)
(declare-fun |%{$(in_main#0)<max>}#1| () Int)
(declare-fun |%{$(in_main#0)<array.1>}#1| () (Array Int Int))
(declare-fun |%{$(in_main#0)<max>}#2| () Int)
(declare-fun |%{$(in_main#0)<max>}#4| () Int)
(define-fun .def_37 () Int (! !pc :next !pc.next))
(define-fun .def_40 () Bool (! (= .def_37 2) :init true))
(define-fun .def_235 () Bool (= .def_37 42))
(define-fun .def_203 () Bool (= !pc.next 64))
(define-fun .def_238 () Bool (and .def_203 .def_235))
(define-fun .def_16 () Int (! |!{$(in_main#0)<N>}| :next |!{$(in_main#0)<N>}.next|))
(define-fun .def_232 () Bool (= .def_16 |!{$(in_main#0)<j>}.next|))
(define-fun .def_230 () Bool (= |!{$(in_main#0)<i>}.next| 0))
(define-fun .def_14 () (Array Int Int) (! |!{$(in_main#0)<array.1>}| :next |!{$(in_main#0)<array.1>}.next|))
(define-fun .def_214 () Int (select .def_14 0))
(define-fun .def_226 () Bool (= |!{$(in_main#0)<max>}.next| .def_214))
(define-fun .def_10 () Int (! |!{$(in_main#0)<k#1>}| :next |!{$(in_main#0)<k#1>}.next|))
(define-fun .def_89 () Bool (= .def_10 |!{$(in_main#0)<k#1>}.next|))
(define-fun .def_8 () Int (! |!{$(in_main#0)<k>}| :next |!{$(in_main#0)<k>}.next|))
(define-fun .def_87 () Bool (= .def_8 |!{$(in_main#0)<k>}.next|))
(define-fun .def_177 () Bool (and .def_87 .def_89))
(define-fun .def_227 () Bool (and .def_177 .def_226))
(define-fun .def_93 () Bool (= .def_14 |!{$(in_main#0)<array.1>}.next|))
(define-fun .def_228 () Bool (and .def_93 .def_227))
(define-fun .def_95 () Bool (= .def_16 |!{$(in_main#0)<N>}.next|))
(define-fun .def_229 () Bool (and .def_95 .def_228))
(define-fun .def_231 () Bool (and .def_229 .def_230))
(define-fun .def_233 () Bool (and .def_231 .def_232))
(define-fun .def_210 () Bool (<= .def_16 .def_8))
(define-fun .def_234 () Bool (and .def_210 .def_233))
(define-fun .def_239 () Bool (and .def_234 .def_238))
(define-fun .def_74 () Bool (= !pc.next 42))
(define-fun .def_236 () Bool (and .def_74 .def_235))
(define-fun .def_212 () (Array Int Int) (store .def_14 .def_8 |!{$(in_main#0)<$(in___VERIFIER_nondet_int#2)<h#<__VERIFIER_nondet_int.return>>>}|))
(define-fun .def_220 () Bool (= |!{$(in_main#0)<array.1>}.next| .def_212))
(define-fun .def_215 () Int (* (- 1) |!{$(in_main#0)<k>}.next|))
(define-fun .def_216 () Int (+ .def_8 .def_215))
(define-fun .def_217 () Bool (= .def_216 (- 1)))
(define-fun .def_218 () Bool (and .def_89 .def_217))
(define-fun .def_12 () Int (! |!{$(in_main#0)<max>}| :next |!{$(in_main#0)<max>}.next|))
(define-fun .def_91 () Bool (= .def_12 |!{$(in_main#0)<max>}.next|))
(define-fun .def_219 () Bool (and .def_91 .def_218))
(define-fun .def_221 () Bool (and .def_219 .def_220))
(define-fun .def_222 () Bool (and .def_95 .def_221))
(define-fun .def_18 () Int (! |!{$(in_main#0)<i>}| :next |!{$(in_main#0)<i>}.next|))
(define-fun .def_97 () Bool (= .def_18 |!{$(in_main#0)<i>}.next|))
(define-fun .def_223 () Bool (and .def_97 .def_222))
(define-fun .def_20 () Int (! |!{$(in_main#0)<j>}| :next |!{$(in_main#0)<j>}.next|))
(define-fun .def_99 () Bool (= .def_20 |!{$(in_main#0)<j>}.next|))
(define-fun .def_224 () Bool (and .def_99 .def_223))
(define-fun .def_211 () Bool (not .def_210))
(define-fun .def_225 () Bool (and .def_211 .def_224))
(define-fun .def_237 () Bool (and .def_225 .def_236))
(define-fun .def_240 () Bool (or .def_237 .def_239))
(define-fun .def_202 () Bool (= .def_37 64))
(define-fun .def_127 () Bool (= !pc.next 100))
(define-fun .def_206 () Bool (and .def_127 .def_202))
(define-fun .def_193 () Bool (= |!{$(in_main#0)<k#1>}.next| 0))
(define-fun .def_194 () Bool (and .def_87 .def_193))
(define-fun .def_195 () Bool (and .def_91 .def_194))
(define-fun .def_196 () Bool (and .def_93 .def_195))
(define-fun .def_197 () Bool (and .def_95 .def_196))
(define-fun .def_198 () Bool (and .def_97 .def_197))
(define-fun .def_199 () Bool (and .def_99 .def_198))
(define-fun .def_143 () Bool (<= .def_18 .def_20))
(define-fun .def_140 () Bool (<= .def_20 0))
(define-fun .def_141 () Bool (not .def_140))
(define-fun .def_138 () Bool (<= .def_16 .def_18))
(define-fun .def_139 () Bool (not .def_138))
(define-fun .def_142 () Bool (and .def_139 .def_141))
(define-fun .def_144 () Bool (and .def_142 .def_143))
(define-fun .def_176 () Bool (not .def_144))
(define-fun .def_200 () Bool (and .def_176 .def_199))
(define-fun .def_207 () Bool (and .def_200 .def_206))
(define-fun .def_204 () Bool (and .def_202 .def_203))
(define-fun .def_186 () Int (* (- 1) |!{$(in_main#0)<j>}.next|))
(define-fun .def_187 () Int (+ .def_20 .def_186))
(define-fun .def_188 () Bool (= .def_187 1))
(define-fun .def_182 () Int (* (- 1) |!{$(in_main#0)<i>}.next|))
(define-fun .def_183 () Int (+ .def_18 .def_182))
(define-fun .def_184 () Bool (= .def_183 (- 1)))
(define-fun .def_178 () Bool (= |!{$(in_main#0)<max>}.next| |%{$(in_main#0)<max>}#4|))
(define-fun .def_179 () Bool (and .def_177 .def_178))
(define-fun .def_180 () Bool (and .def_93 .def_179))
(define-fun .def_181 () Bool (and .def_95 .def_180))
(define-fun .def_185 () Bool (and .def_181 .def_184))
(define-fun .def_189 () Bool (and .def_185 .def_188))
(define-fun .def_158 () Int (+ .def_20 (- 1)))
(define-fun .def_159 () Int (select .def_14 .def_158))
(define-fun .def_169 () Bool (= .def_159 |%{$(in_main#0)<max>}#4|))
(define-fun .def_160 () Bool (<= .def_159 |%{$(in_main#0)<max>}#2|))
(define-fun .def_161 () Bool (not .def_160))
(define-fun .def_171 () Bool (and .def_161 .def_169))
(define-fun .def_168 () Bool (= |%{$(in_main#0)<max>}#2| |%{$(in_main#0)<max>}#4|))
(define-fun .def_170 () Bool (and .def_160 .def_168))
(define-fun .def_172 () Bool (or .def_170 .def_171))
(define-fun .def_190 () Bool (and .def_172 .def_189))
(define-fun .def_145 () Int (select .def_14 .def_18))
(define-fun .def_153 () Bool (= .def_145 |%{$(in_main#0)<max>}#2|))
(define-fun .def_146 () Bool (<= .def_145 .def_12))
(define-fun .def_147 () Bool (not .def_146))
(define-fun .def_155 () Bool (and .def_147 .def_153))
(define-fun .def_152 () Bool (= .def_12 |%{$(in_main#0)<max>}#2|))
(define-fun .def_154 () Bool (and .def_146 .def_152))
(define-fun .def_156 () Bool (or .def_154 .def_155))
(define-fun .def_191 () Bool (and .def_156 .def_190))
(define-fun .def_192 () Bool (and .def_144 .def_191))
(define-fun .def_205 () Bool (and .def_192 .def_204))
(define-fun .def_208 () Bool (or .def_205 .def_207))
(define-fun .def_131 () Bool (= !pc.next 0))
(define-fun .def_122 () Bool (= .def_37 100))
(define-fun .def_132 () Bool (and .def_122 .def_131))
(define-fun .def_77 () Bool (<= .def_16 .def_10))
(define-fun .def_114 () Bool (and .def_77 .def_87))
(define-fun .def_115 () Bool (and .def_89 .def_114))
(define-fun .def_116 () Bool (and .def_91 .def_115))
(define-fun .def_117 () Bool (and .def_93 .def_116))
(define-fun .def_118 () Bool (and .def_95 .def_117))
(define-fun .def_119 () Bool (and .def_97 .def_118))
(define-fun .def_120 () Bool (and .def_99 .def_119))
(define-fun .def_133 () Bool (and .def_120 .def_132))
(define-fun .def_128 () Bool (and .def_122 .def_127))
(define-fun .def_103 () Int (* (- 1) |!{$(in_main#0)<k#1>}.next|))
(define-fun .def_104 () Int (+ .def_10 .def_103))
(define-fun .def_105 () Bool (= .def_104 (- 1)))
(define-fun .def_106 () Bool (and .def_87 .def_105))
(define-fun .def_107 () Bool (and .def_91 .def_106))
(define-fun .def_108 () Bool (and .def_93 .def_107))
(define-fun .def_109 () Bool (and .def_95 .def_108))
(define-fun .def_110 () Bool (and .def_97 .def_109))
(define-fun .def_111 () Bool (and .def_99 .def_110))
(define-fun .def_79 () Int (select .def_14 .def_10))
(define-fun .def_80 () Bool (<= .def_79 .def_12))
(define-fun .def_81 () Int (ite .def_80 1 0))
(define-fun .def_82 () Bool (= .def_81 0))
(define-fun .def_83 () Bool (not .def_82))
(define-fun .def_112 () Bool (and .def_83 .def_111))
(define-fun .def_78 () Bool (not .def_77))
(define-fun .def_113 () Bool (and .def_78 .def_112))
(define-fun .def_129 () Bool (and .def_113 .def_128))
(define-fun .def_124 () Bool (= !pc.next 120))
(define-fun .def_125 () Bool (and .def_122 .def_124))
(define-fun .def_88 () Bool (and .def_82 .def_87))
(define-fun .def_90 () Bool (and .def_88 .def_89))
(define-fun .def_92 () Bool (and .def_90 .def_91))
(define-fun .def_94 () Bool (and .def_92 .def_93))
(define-fun .def_96 () Bool (and .def_94 .def_95))
(define-fun .def_98 () Bool (and .def_96 .def_97))
(define-fun .def_100 () Bool (and .def_98 .def_99))
(define-fun .def_101 () Bool (and .def_78 .def_100))
(define-fun .def_126 () Bool (and .def_101 .def_125))
(define-fun .def_130 () Bool (or .def_126 .def_129))
(define-fun .def_134 () Bool (or .def_130 .def_133))
(define-fun .def_75 () Bool (and .def_40 .def_74))
(define-fun .def_70 () Bool (= |!{$(in_main#0)<j>}.next| |%{$(in_main#0)<j>}#1|))
(define-fun .def_68 () Bool (= |!{$(in_main#0)<i>}.next| |%{$(in_main#0)<i>}#1|))
(define-fun .def_66 () Bool (= |!{$(in_main#0)<N>}.next| |!{$(in_main#0)<$(in___VERIFIER_nondet_int#0)<h#<__VERIFIER_nondet_int.return>>>}|))
(define-fun .def_64 () Bool (= |!{$(in_main#0)<array.1>}.next| |%{$(in_main#0)<array.1>}#1|))
(define-fun .def_62 () Bool (= |!{$(in_main#0)<max>}.next| |%{$(in_main#0)<max>}#1|))
(define-fun .def_60 () Bool (= |!{$(in_main#0)<k#1>}.next| |%{$(in_main#0)<k#1>}#1|))
(define-fun .def_59 () Bool (= |!{$(in_main#0)<k>}.next| 0))
(define-fun .def_61 () Bool (and .def_59 .def_60))
(define-fun .def_63 () Bool (and .def_61 .def_62))
(define-fun .def_65 () Bool (and .def_63 .def_64))
(define-fun .def_67 () Bool (and .def_65 .def_66))
(define-fun .def_69 () Bool (and .def_67 .def_68))
(define-fun .def_71 () Bool (and .def_69 .def_70))
(define-fun .def_54 () Bool (<= |!{$(in_main#0)<$(in___VERIFIER_nondet_int#0)<h#<__VERIFIER_nondet_int.return>>>}| 0))
(define-fun .def_55 () Bool (not .def_54))
(define-fun .def_56 () Int (ite .def_55 1 0))
(define-fun .def_57 () Bool (= .def_56 0))
(define-fun .def_58 () Bool (not .def_57))
(define-fun .def_72 () Bool (and .def_58 .def_71))
(define-fun .def_76 () Bool (and .def_72 .def_75))
(define-fun .def_135 () Bool (or .def_76 .def_134))
(define-fun .def_209 () Bool (or .def_135 .def_208))
(define-fun .def_241 () Bool (! (or .def_209 .def_240) :trans true))
(define-fun .def_136 () Bool (= .def_37 120))
(define-fun .def_242 () Bool (! (not .def_136) :invar-property 0 :invar-property-name ||))
(assert true)
